%nprocshared=16
%mem=32GB
%chk=diphosphite_2Cl_alkyl_intermediate_linear.chk
# B3LYP/6-31G(d,p) opt freq scrf=(smd,solvent=hexane)

DFT Calculation: Ligand 3: 2-Cl-bidentate diphosphite - alkyl_intermediate_linear
Butadiene Hydrocyanation Catalytic Cycle

0 1
Ni  0.0000  0.0000  0.0000
P   2.2000  1.2000  0.0000
P  -2.2000  1.2000  0.0000
C   0.0000 -1.8000  0.5000
C   0.0000 -3.0000  0.0000
C   1.2000 -1.2000  1.0000
C  -1.2000 -1.2000  1.0000
N   0.0000  2.5000  1.5000
C   0.0000  3.7000  1.2000
H   0.0000  4.2000  2.0000
H   0.0000  4.0000  0.3000


